
Gurobi 9.5.0 (linux64) logging started Wed Nov 15 11:39:01 2023

Set parameter LogFile to value "/lustre1/scratch/348/vsc34888/JointResearch/05.Models/06.Benchmarking/D.Representative_days_based_on_RES_and_Demand/RTS24_mod1_ByStages/openStarNet_RTS24_mod1_ByStages.log"
Set parameter Method to value 2
Set parameter MIPFocus to value 1
Set parameter Presolve to value 2
Set parameter RINS to value 100
Set parameter MIPGap to value 0.01
Set parameter Threads to value 36
Set parameter TimeLimit to value 604800
Set parameter IterationLimit to value 760000000
Gurobi Optimizer version 9.5.0 build v9.5.0rc5 (linux64)
Thread count: 36 physical cores, 36 logical processors, using up to 36 threads
Optimize a model with 75244 rows, 47787 columns and 186680 nonzeros
Model fingerprint: 0x348c5e71
Variable types: 47771 continuous, 16 integer (16 binary)
Coefficient statistics:
  Matrix range     [1e-03, 3e+04]
  Objective range  [1e+00, 1e+00]
  Bounds range     [4e-05, 3e+00]
  RHS range        [4e-05, 3e+00]
Presolve removed 49442 rows and 24215 columns
Presolve time: 0.18s
Presolved: 25802 rows, 23572 columns, 90948 nonzeros
Variable types: 23556 continuous, 16 integer (16 binary)
Root relaxation presolved: 25802 rows, 23572 columns, 90948 nonzeros

Root barrier log...

Ordering time: 0.01s

Barrier statistics:
 Dense cols : 16
 AA' NZ     : 1.443e+05
 Factor NZ  : 4.783e+05 (roughly 24 MB of memory)
 Factor Ops : 9.984e+06 (less than 1 second per iteration)
 Threads    : 35

                  Objective                Residual
Iter       Primal          Dual         Primal    Dual     Compl     Time
   0   8.43178376e+05 -1.33720747e+08  6.92e+00 8.33e+01  5.37e+03     0s
   1   9.21393665e+04 -3.03280944e+07  5.66e-01 1.86e-08  6.48e+02     0s
   2   4.62316750e+04 -4.22442635e+06  1.53e-01 7.01e-09  8.23e+01     0s
   3   2.57625397e+04 -4.72790253e+05  7.03e-03 7.93e-10  8.13e+00     0s
   4   1.02350832e+04 -1.14692802e+05  4.35e-04 1.69e-10  2.01e+00     0s
   5   4.20653594e+03 -3.18362122e+04  1.45e-04 4.43e-11  5.79e-01     0s
   6   1.65151332e+03 -7.63132812e+03  4.59e-05 1.02e-11  1.49e-01     0s
   7   6.23011973e+02 -2.62258005e+03  9.72e-06 3.45e-12  5.21e-02     0s
   8   4.01070040e+02 -7.44972347e+02  4.68e-06 1.10e-12  1.84e-02     0s
   9   2.84384067e+02 -3.01782180e+02  2.62e-06 9.09e-13  9.41e-03     0s
  10   2.14136438e+02 -9.46379319e+01  1.53e-06 1.82e-12  4.96e-03     0s
  11   1.64933223e+02  2.99730266e+00  8.23e-07 9.09e-13  2.60e-03     0s
  12   1.35547348e+02  5.97887810e+01  4.21e-07 9.09e-13  1.22e-03     0s
  13   1.14185171e+02  8.67298309e+01  1.43e-07 9.09e-13  4.41e-04     0s
  14   1.09661896e+02  9.74232926e+01  8.79e-08 9.09e-13  1.97e-04     1s
  15   1.07408924e+02  9.94027629e+01  5.83e-08 1.82e-12  1.29e-04     1s
  16   1.06196946e+02  1.00621590e+02  4.22e-08 1.82e-12  8.95e-05     1s
  17   1.05047187e+02  1.01262660e+02  2.70e-08 9.09e-13  6.08e-05     1s
  18   1.04291343e+02  1.02124018e+02  1.71e-08 9.09e-13  3.48e-05     1s
  19   1.03817236e+02  1.02435290e+02  1.09e-08 9.09e-13  2.22e-05     1s
  20   1.03375173e+02  1.02683399e+02  5.15e-09 9.09e-13  1.11e-05     1s
  21   1.03141369e+02  1.02812838e+02  2.13e-09 9.09e-13  5.28e-06     1s
  22   1.03085545e+02  1.02866242e+02  1.44e-09 9.09e-13  3.52e-06     1s
  23   1.03013429e+02  1.02933184e+02  5.42e-10 9.09e-13  1.29e-06     1s
  24   1.02974600e+02  1.02969341e+02  1.32e-10 1.36e-12  8.45e-08     1s
  25   1.02972792e+02  1.02972243e+02  1.18e-09 9.09e-13  8.82e-09     1s
  26   1.02972731e+02  1.02972718e+02  4.04e-10 9.09e-13  1.99e-10     1s
  27   1.02972728e+02  1.02972728e+02  1.16e-10 9.09e-13  3.21e-15     1s

Barrier solved model in 27 iterations and 0.63 seconds (0.58 work units)
Optimal objective 1.02972728e+02


Root relaxation: objective 1.029727e+02, 3446 iterations, 0.59 seconds (0.50 work units)

    Nodes    |    Current Node    |     Objective Bounds      |     Work
 Expl Unexpl |  Obj  Depth IntInf | Incumbent    BestBd   Gap | It/Node Time

     0     0  102.97273    0   15          -  102.97273      -     -    1s
H    0     0                     157.5697869  102.97273  34.6%     -    1s
H    0     0                     127.2233979  102.97273  19.1%     -    2s
     0     0  105.07289    0   11  127.22340  105.07289  17.4%     -    2s
     0     0  105.08591    0   11  127.22340  105.08591  17.4%     -    3s
     0     0  105.13874    0   11  127.22340  105.13874  17.4%     -    3s
     0     0  105.13874    0   11  127.22340  105.13874  17.4%     -    3s
     0     0  106.32732    0   10  127.22340  106.32732  16.4%     -    4s
     0     0  106.37466    0   11  127.22340  106.37466  16.4%     -    5s
     0     0  106.37648    0   11  127.22340  106.37648  16.4%     -    5s
     0     0  106.80947    0   10  127.22340  106.80947  16.0%     -    5s
     0     0  106.94177    0   11  127.22340  106.94177  15.9%     -    6s
     0     0  106.94268    0   10  127.22340  106.94268  15.9%     -    6s
     0     0  106.94268    0   10  127.22340  106.94268  15.9%     -    6s
     0     0  107.12175    0    9  127.22340  107.12175  15.8%     -    6s
     0     0  107.12462    0    9  127.22340  107.12462  15.8%     -    7s
     0     0  107.12462    0    9  127.22340  107.12462  15.8%     -    7s
     0     0  107.40950    0    9  127.22340  107.40950  15.6%     -    8s
H    0     0                     117.4561877  107.40950  8.55%     -   14s
     0     2  107.40950    0    9  117.45619  107.40950  8.55%     -   14s
     3     8  114.73705    2    8  117.45619  108.87043  7.31%   876   15s

Cutting planes:
  Gomory: 2
  Implied bound: 121
  MIR: 1237
  RLT: 1
  Relax-and-lift: 3

Explored 74 nodes (34631 simplex iterations) in 17.24 seconds (22.76 work units)
Thread count was 36 (of 36 available processors)

Solution count 3: 117.456 127.223 157.57 

Optimal solution found (tolerance 1.00e-02)
Best objective 1.174561877255e+02, best bound 1.170491369174e+02, gap 0.3466%

Gurobi 9.5.0 (linux64) logging started Wed Nov 15 11:39:36 2023

Set parameter LogFile to value "/lustre1/scratch/348/vsc34888/JointResearch/05.Models/06.Benchmarking/D.Representative_days_based_on_RES_and_Demand/RTS24_mod1_ByStages/openStarNet_RTS24_mod1_ByStages.log"
Set parameter Method to value 2
Set parameter MIPFocus to value 1
Set parameter Presolve to value 2
Set parameter RINS to value 100
Set parameter MIPGap to value 0.01
Set parameter Threads to value 36
Set parameter TimeLimit to value 604800
Set parameter IterationLimit to value 760000000
No parameters matching 'relax_integrality' found
Gurobi Optimizer version 9.5.0 build v9.5.0rc5 (linux64)
Thread count: 36 physical cores, 36 logical processors, using up to 36 threads
Optimize a model with 75244 rows, 47771 columns and 174248 nonzeros
Model fingerprint: 0x52a42ad8
Coefficient statistics:
  Matrix range     [1e-03, 3e+04]
  Objective range  [1e+00, 1e+00]
  Bounds range     [4e-05, 3e+00]
  RHS range        [4e-05, 3e+01]
Presolve removed 57396 rows and 21111 columns
Presolve time: 0.08s
Presolved: 17848 rows, 26854 columns, 66624 nonzeros

Ordering time: 0.00s

Barrier statistics:
 AA' NZ     : 4.592e+04
 Factor NZ  : 1.920e+05 (roughly 16 MB of memory)
 Factor Ops : 2.887e+06 (less than 1 second per iteration)
 Threads    : 36

                  Objective                Residual
Iter       Primal          Dual         Primal    Dual     Compl     Time
   0   1.01353139e+06 -5.89658190e+07  1.74e+01 2.10e+01  2.99e+03     0s
   1   1.42907545e+05 -1.08579882e+07  1.95e+00 6.25e-13  3.61e+02     0s
   2   4.12405307e+04 -1.64915752e+06  2.67e-01 6.80e-13  4.45e+01     0s
   3   1.97782862e+04 -2.51945829e+05  1.39e-02 5.06e-13  6.02e+00     0s
   4   5.42949775e+03 -6.91602597e+04  7.87e-04 3.24e-13  1.63e+00     0s
   5   2.42964487e+03 -1.85978146e+04  2.28e-04 2.15e-13  4.58e-01     0s
   6   1.00468401e+03 -4.45632518e+03  6.70e-05 2.27e-13  1.19e-01     0s
   7   5.14776730e+02 -1.58948895e+03  1.97e-05 2.27e-13  4.58e-02     0s
   8   3.50950578e+02 -9.00709899e+02  9.15e-06 1.14e-13  2.73e-02     0s
   9   2.35917028e+02 -1.93613733e+02  3.78e-06 2.27e-13  9.35e-03     0s
  10   1.62889522e+02 -4.81221170e+01  1.06e-06 1.14e-13  4.60e-03     0s
  11   1.34095269e+02  5.60608884e+01  2.96e-07 1.14e-13  1.70e-03     0s
  12   1.25845532e+02  9.49202572e+01  1.39e-07 1.14e-13  6.74e-04     0s
  13   1.21010847e+02  1.08677629e+02  5.63e-08 1.14e-13  2.69e-04     0s
  14   1.19068795e+02  1.13560000e+02  2.44e-08 1.14e-13  1.20e-04     0s
  15   1.18014896e+02  1.16480261e+02  8.02e-09 1.14e-13  3.34e-05     0s
  16   1.17534596e+02  1.17343149e+02  1.05e-09 2.27e-13  4.17e-06     0s
  17   1.17468302e+02  1.17430378e+02  1.56e-10 1.14e-13  8.26e-07     0s
  18   1.17457269e+02  1.17454832e+02  1.20e-10 2.27e-13  5.31e-08     0s
  19   1.17456190e+02  1.17456182e+02  6.00e-11 1.71e-13  1.58e-10     0s
  20   1.17456188e+02  1.17456188e+02  1.06e-10 1.14e-13  1.58e-13     0s

Barrier solved model in 20 iterations and 0.28 seconds (0.26 work units)
Optimal objective 1.17456188e+02

Crossover log...

    2407 DPushes remaining with DInf 0.0000000e+00                 0s
       0 DPushes remaining with DInf 0.0000000e+00                 0s

     773 PPushes remaining with PInf 0.0000000e+00                 0s
       0 PPushes remaining with PInf 0.0000000e+00                 0s

  Push phase complete: Pinf 0.0000000e+00, Dinf 5.7395904e-13      0s

Iteration    Objective       Primal Inf.    Dual Inf.      Time
     833    1.1745619e+02   0.000000e+00   0.000000e+00      0s

Use crossover to convert LP symmetric solution to basic solution...
Crossover log...

       0 DPushes remaining with DInf 0.0000000e+00                 0s

     481 PPushes remaining with PInf 0.0000000e+00                 0s
       0 PPushes remaining with PInf 0.0000000e+00                 0s

  Push phase complete: Pinf 0.0000000e+00, Dinf 5.1141243e-13      0s

Iteration    Objective       Primal Inf.    Dual Inf.      Time
    1355    1.1745619e+02   0.000000e+00   0.000000e+00      0s

Solved in 1355 iterations and 0.48 seconds (0.38 work units)
Optimal objective  1.174561877e+02
